c description: Graph 3-Colorability of graph: 
c generator: CNFgen (0.9.0)
c copyright: (C) 2012-2020 Massimo Lauria <massimo.lauria@uniroma1.it>
c url: https://massimolauria.net/cnfgen
c
p cnf 90 300
1 2 3 0
-1 -2 0
-1 -3 0
-2 -3 0
4 5 6 0
-4 -5 0
-4 -6 0
-5 -6 0
7 8 9 0
-7 -8 0
-7 -9 0
-8 -9 0
10 11 12 0
-10 -11 0
-10 -12 0
-11 -12 0
13 14 15 0
-13 -14 0
-13 -15 0
-14 -15 0
16 17 18 0
-16 -17 0
-16 -18 0
-17 -18 0
19 20 21 0
-19 -20 0
-19 -21 0
-20 -21 0
22 23 24 0
-22 -23 0
-22 -24 0
-23 -24 0
25 26 27 0
-25 -26 0
-25 -27 0
-26 -27 0
28 29 30 0
-28 -29 0
-28 -30 0
-29 -30 0
31 32 33 0
-31 -32 0
-31 -33 0
-32 -33 0
34 35 36 0
-34 -35 0
-34 -36 0
-35 -36 0
37 38 39 0
-37 -38 0
-37 -39 0
-38 -39 0
40 41 42 0
-40 -41 0
-40 -42 0
-41 -42 0
43 44 45 0
-43 -44 0
-43 -45 0
-44 -45 0
46 47 48 0
-46 -47 0
-46 -48 0
-47 -48 0
49 50 51 0
-49 -50 0
-49 -51 0
-50 -51 0
52 53 54 0
-52 -53 0
-52 -54 0
-53 -54 0
55 56 57 0
-55 -56 0
-55 -57 0
-56 -57 0
58 59 60 0
-58 -59 0
-58 -60 0
-59 -60 0
61 62 63 0
-61 -62 0
-61 -63 0
-62 -63 0
64 65 66 0
-64 -65 0
-64 -66 0
-65 -66 0
67 68 69 0
-67 -68 0
-67 -69 0
-68 -69 0
70 71 72 0
-70 -71 0
-70 -72 0
-71 -72 0
73 74 75 0
-73 -74 0
-73 -75 0
-74 -75 0
76 77 78 0
-76 -77 0
-76 -78 0
-77 -78 0
79 80 81 0
-79 -80 0
-79 -81 0
-80 -81 0
82 83 84 0
-82 -83 0
-82 -84 0
-83 -84 0
85 86 87 0
-85 -86 0
-85 -87 0
-86 -87 0
88 89 90 0
-88 -89 0
-88 -90 0
-89 -90 0
-1 -10 0
-2 -11 0
-3 -12 0
-1 -37 0
-2 -38 0
-3 -39 0
-1 -52 0
-2 -53 0
-3 -54 0
-1 -64 0
-2 -65 0
-3 -66 0
-1 -67 0
-2 -68 0
-3 -69 0
-1 -79 0
-2 -80 0
-3 -81 0
-1 -88 0
-2 -89 0
-3 -90 0
-4 -7 0
-5 -8 0
-6 -9 0
-4 -34 0
-5 -35 0
-6 -36 0
-4 -46 0
-5 -47 0
-6 -48 0
-4 -52 0
-5 -53 0
-6 -54 0
-4 -79 0
-5 -80 0
-6 -81 0
-7 -25 0
-8 -26 0
-9 -27 0
-7 -43 0
-8 -44 0
-9 -45 0
-10 -40 0
-11 -41 0
-12 -42 0
-10 -49 0
-11 -50 0
-12 -51 0
-10 -82 0
-11 -83 0
-12 -84 0
-13 -34 0
-14 -35 0
-15 -36 0
-13 -43 0
-14 -44 0
-15 -45 0
-13 -61 0
-14 -62 0
-15 -63 0
-13 -76 0
-14 -77 0
-15 -78 0
-13 -79 0
-14 -80 0
-15 -81 0
-13 -82 0
-14 -83 0
-15 -84 0
-16 -61 0
-17 -62 0
-18 -63 0
-16 -64 0
-17 -65 0
-18 -66 0
-16 -82 0
-17 -83 0
-18 -84 0
-19 -46 0
-20 -47 0
-21 -48 0
-19 -76 0
-20 -77 0
-21 -78 0
-22 -28 0
-23 -29 0
-24 -30 0
-22 -34 0
-23 -35 0
-24 -36 0
-25 -85 0
-26 -86 0
-27 -87 0
-28 -67 0
-29 -68 0
-30 -69 0
-31 -34 0
-32 -35 0
-33 -36 0
-31 -49 0
-32 -50 0
-33 -51 0
-31 -61 0
-32 -62 0
-33 -63 0
-34 -37 0
-35 -38 0
-36 -39 0
-34 -43 0
-35 -44 0
-36 -45 0
-34 -70 0
-35 -71 0
-36 -72 0
-37 -58 0
-38 -59 0
-39 -60 0
-37 -64 0
-38 -65 0
-39 -66 0
-37 -70 0
-38 -71 0
-39 -72 0
-40 -76 0
-41 -77 0
-42 -78 0
-43 -64 0
-44 -65 0
-45 -66 0
-43 -70 0
-44 -71 0
-45 -72 0
-46 -79 0
-47 -80 0
-48 -81 0
-49 -67 0
-50 -68 0
-51 -69 0
-52 -55 0
-53 -56 0
-54 -57 0
-52 -61 0
-53 -62 0
-54 -63 0
-52 -85 0
-53 -86 0
-54 -87 0
-55 -67 0
-56 -68 0
-57 -69 0
-55 -79 0
-56 -80 0
-57 -81 0
-58 -79 0
-59 -80 0
-60 -81 0
-61 -79 0
-62 -80 0
-63 -81 0
-61 -85 0
-62 -86 0
-63 -87 0
-64 -85 0
-65 -86 0
-66 -87 0
-67 -88 0
-68 -89 0
-69 -90 0
-70 -85 0
-71 -86 0
-72 -87 0
-76 -88 0
-77 -89 0
-78 -90 0
-79 -85 0
-80 -86 0
-81 -87 0
-79 -88 0
-80 -89 0
-81 -90 0